projected/problems_b25_r0_d7_m100_s666/_DIMACS/b25_d7_r0_s666_015.cnf
p cnf 276 493 25
c p show 1 2 3 4 5 6 7 8 9 10 11 12 13 14 15 16 17 18 19 20 21 22 23 24 25
-215 14 0
-215 -18 0
-216 -15 0
-216 -3 0
-217 216 0
-217 215 0
-218 -2 0
-218 16 0
-219 18 4 0
-220 219 218 0
-221 220 0
-221 217 0
-222 25 9 0
-223 -20 -13 0
-224 223 222 0
-225 3 20 0
-226 1 0
-226 20 0
-227 -20 0
-227 -1 0
-228 227 226 0
-229 228 225 0
-230 229 224 0
-231 230 221 0
-232 -22 22 0
-233 -25 -1 0
-234 233 232 0
-235 -25 13 0
-236 -2 25 0
-237 -25 2 0
-238 237 0
-238 236 0
-239 238 0
-239 235 0
-240 239 234 0
-241 12 15 0
-242 -13 0
-242 23 0
-243 242 0
-243 241 0
-244 -22 0
-244 18 0
-245 -21 0
-245 -2 0
-246 245 244 0
-247 246 0
-247 243 0
-248 247 0
-248 240 0
-249 248 0
-249 231 0
-250 22 0
-250 -22 0
-251 25 0
-251 1 0
-252 251 0
-252 250 0
-253 25 0
-253 -13 0
-254 2 0
-254 -25 0
-255 25 0
-255 -2 0
-256 255 254 0
-257 256 253 0
-258 257 0
-258 252 0
-259 -12 0
-259 -15 0
-260 13 -23 0
-261 260 259 0
-262 22 -18 0
-263 21 2 0
-264 263 0
-264 262 0
-265 264 261 0
-266 265 258 0
-267 -14 18 0
-268 15 3 0
-269 268 267 0
-270 2 -16 0
-271 -18 0
-271 -4 0
-272 271 0
-272 270 0
-273 272 269 0
-274 -25 0
-274 -9 0
-275 20 0
-275 13 0
-276 275 0
-276 274 0
-26 -3 0
-26 -20 0
-27 -1 -20 0
-28 20 1 0
-29 28 0
-29 27 0
-30 29 0
-30 26 0
-31 30 0
-31 276 0
-32 31 0
-32 273 0
-33 32 0
-33 266 0
-34 33 249 0
-35 -21 25 0
-36 8 -5 0
-37 36 0
-37 35 0
-38 14 15 0
-39 -15 -14 0
-40 39 0
-40 38 0
-41 -3 -16 0
-42 41 0
-42 40 0
-43 42 0
-43 37 0
-44 -25 -18 0
-45 18 25 0
-46 45 0
-46 44 0
-47 -6 14 0
-48 -14 6 0
-49 48 0
-49 47 0
-50 49 0
-50 46 0
-51 -19 0
-51 9 0
-52 11 0
-52 -4 0
-53 52 51 0
-54 53 50 0
-55 54 43 0
-56 -17 0
-56 -4 0
-57 4 19 0
-58 57 56 0
-59 -4 0
-59 -19 0
-60 17 4 0
-61 60 59 0
-62 61 0
-62 58 0
-63 7 0
-63 -12 0
-64 25 17 0
-65 64 63 0
-66 65 62 0
-67 20 0
-67 16 0
-68 -4 21 0
-69 68 0
-69 67 0
-70 3 -19 0
-71 1 -22 0
-72 71 70 0
-73 72 69 0
-74 73 0
-74 66 0
-75 74 0
-75 55 0
-76 59 0
-76 60 0
-77 56 0
-77 57 0
-78 77 76 0
-79 -7 12 0
-80 -25 0
-80 -17 0
-81 80 0
-81 79 0
-82 81 0
-82 78 0
-83 -20 -16 0
-84 4 0
-84 -21 0
-85 84 83 0
-86 -3 0
-86 19 0
-87 -1 0
-87 22 0
-88 87 0
-88 86 0
-89 88 0
-89 85 0
-90 89 82 0
-91 21 0
-91 -25 0
-92 -8 0
-92 5 0
-93 92 91 0
-94 -14 0
-94 -15 0
-95 15 0
-95 14 0
-96 95 94 0
-97 3 0
-97 16 0
-98 97 96 0
-99 98 93 0
-100 25 0
-100 18 0
-101 -18 0
-101 -25 0
-102 101 100 0
-103 6 0
-103 -14 0
-104 14 0
-104 -6 0
-105 104 103 0
-106 105 102 0
-107 19 -9 0
-108 -11 4 0
-109 108 0
-109 107 0
-110 109 0
-110 106 0
-111 110 0
-111 99 0
-112 111 0
-112 90 0
-113 112 75 0
-114 113 34 0
-115 -21 -7 0
-116 15 6 0
-117 -6 -15 0
-118 117 0
-118 116 0
-119 118 0
-119 115 0
-120 -16 17 0
-121 -25 0
-121 -1 0
-122 121 0
-122 120 0
-123 25 1 0
-124 16 0
-124 -17 0
-125 124 0
-125 123 0
-126 125 122 0
-127 126 119 0
-128 6 14 0
-129 -6 20 0
-130 129 128 0
-131 -9 -16 0
-132 -2 0
-132 3 0
-133 -3 0
-133 2 0
-134 133 132 0
-135 134 0
-135 131 0
-136 135 130 0
-137 136 127 0
-138 9 -21 0
-139 -7 0
-139 9 0
-140 139 0
-140 138 0
-141 13 0
-141 -16 0
-142 -1 0
-142 1 0
-143 142 0
-144 143 0
-144 141 0
-145 144 140 0
-146 2 0
-146 18 0
-147 4 0
-147 10 0
-148 147 146 0
-149 -8 8 0
-150 -8 10 0
-151 150 0
-151 149 0
-152 151 0
-152 148 0
-153 152 145 0
-154 153 0
-154 137 0
-155 -8 -22 0
-156 -18 23 0
-157 156 0
-157 155 0
-158 10 0
-158 -24 0
-159 -22 0
-159 -10 0
-160 10 0
-160 22 0
-161 160 159 0
-162 161 0
-162 158 0
-163 162 0
-163 157 0
-164 -10 24 0
-165 22 10 0
-166 -10 -22 0
-167 166 0
-167 165 0
-168 167 164 0
-169 8 0
-169 22 0
-170 18 0
-170 -23 0
-171 170 169 0
-172 171 0
-172 168 0
-173 172 163 0
-174 21 0
-174 3 0
-175 -10 0
-175 13 0
-176 175 174 0
-177 17 0
-178 1 -1 0
-179 178 0
-179 177 0
-180 179 0
-180 176 0
-181 180 173 0
-182 6 22 0
-183 11 0
-183 -1 0
-184 1 0
-184 -11 0
-185 184 183 0
-186 185 0
-186 182 0
-187 -23 0
-187 20 0
-188 -15 -24 0
-189 188 187 0
-190 189 186 0
-191 23 -20 0
-192 15 0
-192 24 0
-193 192 0
-193 191 0
-194 -6 0
-194 -22 0
-195 -11 1 0
-196 -1 11 0
-197 196 0
-197 195 0
-198 197 194 0
-199 198 193 0
-200 199 0
-200 190 0
-201 25 0
-202 -18 -19 0
-203 202 201 0
-204 18 0
-204 19 0
-205 -25 0
-206 205 204 0
-207 206 0
-207 203 0
-208 -8 0
-208 -9 0
-209 -18 7 0
-210 209 0
-210 208 0
-211 210 207 0
-212 211 200 0
-213 212 181 0
-214 213 154 0
214 114 0
-232 -250 0
-250 -232 0
-251 -233 0
-252 -234 0
-235 -253 0
-238 -256 0
-239 -257 0
-257 -239 0
-258 -240 0
-240 -258 0
-241 -259 0
-242 -260 0
-243 -261 0
-244 -262 0
-263 -245 0
-245 -263 0
-246 -264 0
-247 -265 0
-248 -266 0
-215 -267 0
-216 -268 0
-217 -269 0
-218 -270 0
-270 -218 0
-219 -271 0
-271 -219 0
-272 -220 0
-220 -272 0
-221 -273 0
-273 -221 0
-274 -222 0
-222 -274 0
-275 -223 0
-223 -275 0
-224 -276 0
-276 -224 0
-225 -26 0
-26 -225 0
-29 -228 0
-30 -229 0
-31 -230 0
-32 -231 0
-57 -59 0
-59 -57 0
-60 -56 0
-56 -60 0
-62 -78 0
-79 -63 0
-63 -79 0
-64 -80 0
-65 -81 0
-66 -82 0
-67 -83 0
-83 -67 0
-68 -84 0
-84 -68 0
-85 -69 0
-69 -85 0
-70 -86 0
-86 -70 0
-71 -87 0
-87 -71 0
-88 -72 0
-72 -88 0
-73 -89 0
-74 -90 0
-91 -35 0
-35 -91 0
-92 -36 0
-36 -92 0
-37 -93 0
-93 -37 0
-40 -96 0
-96 -40 0
-41 -97 0
-97 -41 0
-98 -42 0
-99 -43 0
-43 -99 0
-46 -102 0
-102 -46 0
-49 -105 0
-105 -49 0
-106 -50 0
-51 -107 0
-107 -51 0
-52 -108 0
-108 -52 0
-109 -53 0
-110 -54 0
-54 -110 0
-55 -111 0
-111 -55 0
-121 -123 0
-120 -124 0
-124 -120 0
-164 -158 0
-158 -164 0
-167 -161 0
-161 -167 0
-162 -168 0
-155 -169 0
-170 -156 0
-156 -170 0
-157 -171 0
-171 -157 0
-187 -191 0
-191 -187 0
-188 -192 0
-192 -188 0
-193 -189 0
-194 -182 0
-182 -194 0
-197 -185 0
-185 -197 0
-186 -198 0
-204 -202 0
-205 -201 0
-201 -205 0
