projected/problems_b25_r0_d7_m100_s666/b25_d7_r0_s666_015.smt2
(set-logic QF_UF)
(declare-fun A0 () Bool)
(declare-fun A1 () Bool)
(declare-fun A2 () Bool)
(declare-fun A3 () Bool)
(declare-fun A4 () Bool)
(declare-fun A5 () Bool)
(declare-fun A6 () Bool)
(declare-fun A7 () Bool)
(declare-fun A8 () Bool)
(declare-fun A9 () Bool)
(declare-fun A10 () Bool)
(declare-fun A11 () Bool)
(declare-fun A12 () Bool)
(declare-fun A13 () Bool)
(declare-fun A14 () Bool)
(declare-fun A15 () Bool)
(declare-fun A16 () Bool)
(declare-fun A17 () Bool)
(declare-fun A18 () Bool)
(declare-fun A19 () Bool)
(declare-fun A20 () Bool)
(declare-fun A21 () Bool)
(declare-fun A22 () Bool)
(declare-fun A23 () Bool)
(declare-fun A24 () Bool)
(assert (let ((.def_0 (not A21))) (let ((.def_1 (or .def_0 A21))) (let ((.def_2 (not .def_1))) (let ((.def_3 (and A24 A0))) (let ((.def_4 (and .def_3 .def_2))) (let ((.def_5 (not A24))) (let ((.def_6 (or .def_5 A12))) (let ((.def_7 (= A24 A1))) (let ((.def_8 (and .def_7 .def_6))) (let ((.def_9 (not .def_8))) (let ((.def_10 (and .def_9 .def_4))) (let ((.def_11 (not .def_10))) (let ((.def_12 (or A11 A14))) (let ((.def_13 (not A12))) (let ((.def_14 (and .def_13 A22))) (let ((.def_15 (and .def_14 .def_12))) (let ((.def_16 (and .def_0 A17))) (let ((.def_17 (or A20 A1))) (let ((.def_18 (not .def_17))) (let ((.def_19 (or .def_18 .def_16))) (let ((.def_20 (and .def_19 .def_15))) (let ((.def_21 (and .def_20 .def_11))) (let ((.def_22 (not A17))) (let ((.def_23 (and A13 .def_22))) (let ((.def_24 (not A2))) (let ((.def_25 (not A14))) (let ((.def_26 (and .def_25 .def_24))) (let ((.def_27 (and .def_26 .def_23))) (let ((.def_28 (not A1))) (let ((.def_29 (and .def_28 A15))) (let ((.def_30 (not .def_29))) (let ((.def_31 (or A17 A3))) (let ((.def_32 (not .def_31))) (let ((.def_33 (and .def_32 .def_30))) (let ((.def_34 (not .def_33))) (let ((.def_35 (and .def_34 .def_27))) (let ((.def_36 (not .def_35))) (let ((.def_37 (not A8))) (let ((.def_38 (and .def_5 .def_37))) (let ((.def_39 (not .def_38))) (let ((.def_40 (and A19 A12))) (let ((.def_41 (not .def_40))) (let ((.def_42 (or .def_41 .def_39))) (let ((.def_43 (not .def_42))) (let ((.def_44 (or A2 A19))) (let ((.def_45 (not .def_44))) (let ((.def_46 (not A19))) (let ((.def_47 (= .def_46 A0))) (let ((.def_48 (and .def_47 .def_45))) (let ((.def_49 (and .def_48 .def_43))) (let ((.def_50 (and .def_49 .def_36))) (let ((.def_51 (= .def_50 .def_21))) (let ((.def_52 (not .def_51))) (let ((.def_53 (or A3 A18))) (let ((.def_54 (not .def_53))) (let ((.def_55 (or A16 A3))) (let ((.def_56 (not .def_55))) (let ((.def_57 (= .def_56 .def_54))) (let ((.def_58 (not A6))) (let ((.def_59 (or .def_58 A11))) (let ((.def_60 (not .def_59))) (let ((.def_61 (or A24 A16))) (let ((.def_62 (or .def_61 .def_60))) (let ((.def_63 (or .def_62 .def_57))) (let ((.def_64 (and A19 A15))) (let ((.def_65 (not .def_64))) (let ((.def_66 (not A3))) (let ((.def_67 (or .def_66 A20))) (let ((.def_68 (not .def_67))) (let ((.def_69 (or .def_68 .def_65))) (let ((.def_70 (not .def_69))) (let ((.def_71 (not A18))) (let ((.def_72 (or A2 .def_71))) (let ((.def_73 (not .def_72))) (let ((.def_74 (or A0 .def_0))) (let ((.def_75 (not .def_74))) (let ((.def_76 (and .def_75 .def_73))) (let ((.def_77 (not .def_76))) (let ((.def_78 (or .def_77 .def_70))) (let ((.def_79 (and .def_78 .def_63))) (let ((.def_80 (and A20 .def_5))) (let ((.def_81 (not .def_80))) (let ((.def_82 (not A7))) (let ((.def_83 (and .def_82 A4))) (let ((.def_84 (not .def_83))) (let ((.def_85 (and .def_84 .def_81))) (let ((.def_86 (not .def_85))) (let ((.def_87 (not A13))) (let ((.def_88 (= A14 .def_87))) (let ((.def_89 (not .def_88))) (let ((.def_90 (not A15))) (let ((.def_91 (or .def_24 .def_90))) (let ((.def_92 (not .def_91))) (let ((.def_93 (or .def_92 .def_89))) (let ((.def_94 (or .def_93 .def_86))) (let ((.def_95 (not .def_94))) (let ((.def_96 (= .def_22 A24))) (let ((.def_97 (not .def_96))) (let ((.def_98 (= A13 A5))) (let ((.def_99 (not .def_98))) (let ((.def_100 (or .def_99 .def_97))) (let ((.def_101 (and .def_71 A8))) (let ((.def_102 (not .def_101))) (let ((.def_103 (and A10 .def_66))) (let ((.def_104 (not .def_103))) (let ((.def_105 (and .def_104 .def_102))) (let ((.def_106 (and .def_105 .def_100))) (let ((.def_107 (not .def_106))) (let ((.def_108 (or .def_107 .def_95))) (let ((.def_109 (not .def_108))) (let ((.def_110 (= .def_109 .def_79))) (let ((.def_111 (not .def_110))) (let ((.def_112 (or .def_111 .def_52))) (let ((.def_113 (not A20))) (let ((.def_114 (or .def_113 .def_58))) (let ((.def_115 (= A5 .def_25))) (let ((.def_116 (and .def_115 .def_114))) (let ((.def_117 (not .def_116))) (let ((.def_118 (not A0))) (let ((.def_119 (and .def_5 .def_118))) (let ((.def_120 (or .def_90 A16))) (let ((.def_121 (not .def_120))) (let ((.def_122 (= .def_121 .def_119))) (let ((.def_123 (and .def_122 .def_117))) (let ((.def_124 (not .def_123))) (let ((.def_125 (not A5))) (let ((.def_126 (and .def_125 .def_87))) (let ((.def_127 (not .def_126))) (let ((.def_128 (or .def_125 A19))) (let ((.def_129 (or .def_128 .def_127))) (let ((.def_130 (not .def_129))) (let ((.def_131 (and A8 A15))) (let ((.def_132 (not .def_131))) (let ((.def_133 (= .def_24 .def_28))) (let ((.def_134 (not .def_133))) (let ((.def_135 (and .def_134 .def_132))) (let ((.def_136 (not .def_135))) (let ((.def_137 (and .def_136 .def_130))) (let ((.def_138 (not .def_137))) (let ((.def_139 (or .def_138 .def_124))) (let ((.def_140 (not .def_139))) (let ((.def_141 (or A8 .def_113))) (let ((.def_142 (not .def_141))) (let ((.def_143 (and .def_58 A8))) (let ((.def_144 (not .def_143))) (let ((.def_145 (or .def_144 .def_142))) (let ((.def_146 (not .def_145))) (let ((.def_147 (or .def_13 A15))) (let ((.def_148 (not .def_147))) (let ((.def_149 (= .def_118 .def_118))) (let ((.def_150 (not .def_149))) (let ((.def_151 (and .def_150 .def_148))) (let ((.def_152 (or .def_151 .def_146))) (let ((.def_153 (not .def_152))) (let ((.def_154 (or .def_28 .def_22))) (let ((.def_155 (not A9))) (let ((.def_156 (or .def_66 .def_155))) (let ((.def_157 (and .def_156 .def_154))) (let ((.def_158 (or .def_82 A7))) (let ((.def_159 (not .def_158))) (let ((.def_160 (and A7 .def_155))) (let ((.def_161 (or .def_160 .def_159))) (let ((.def_162 (or .def_161 .def_157))) (let ((.def_163 (and .def_162 .def_153))) (let ((.def_164 (or .def_163 .def_140))) (let ((.def_165 (not .def_164))) (let ((.def_166 (or .def_155 A23))) (let ((.def_167 (not .def_166))) (let ((.def_168 (= A9 .def_0))) (let ((.def_169 (not .def_168))) (let ((.def_170 (and .def_169 .def_167))) (let ((.def_171 (or .def_82 .def_0))) (let ((.def_172 (not A22))) (let ((.def_173 (and A17 .def_172))) (let ((.def_174 (not .def_173))) (let ((.def_175 (and .def_174 .def_171))) (let ((.def_176 (not .def_175))) (let ((.def_177 (= .def_176 .def_170))) (let ((.def_178 (and A20 A2))) (let ((.def_179 (not .def_178))) (let ((.def_180 (and .def_155 A12))) (let ((.def_181 (not .def_180))) (let ((.def_182 (and .def_181 .def_179))) (let ((.def_183 (not .def_182))) (let ((.def_184 (not A16))) (let ((.def_185 (and .def_184 .def_184))) (let ((.def_186 (not .def_185))) (let ((.def_187 (or A0 .def_118))) (let ((.def_188 (and .def_187 .def_186))) (let ((.def_189 (and .def_188 .def_183))) (let ((.def_190 (not .def_189))) (let ((.def_191 (and .def_190 .def_177))) (let ((.def_192 (not .def_191))) (let ((.def_193 (and .def_172 A19))) (let ((.def_194 (not .def_193))) (let ((.def_195 (not A23))) (let ((.def_196 (or .def_25 .def_195))) (let ((.def_197 (not .def_196))) (let ((.def_198 (and .def_197 .def_194))) (let ((.def_199 (and .def_125 .def_0))) (let ((.def_200 (not .def_199))) (let ((.def_201 (= A0 A10))) (let ((.def_202 (not .def_201))) (let ((.def_203 (and .def_202 .def_200))) (let ((.def_204 (= .def_203 .def_198))) (let ((.def_205 (not .def_204))) (let ((.def_206 (and A17 A18))) (let ((.def_207 (and .def_5 .def_5))) (let ((.def_208 (not .def_207))) (let ((.def_209 (= .def_208 .def_206))) (let ((.def_210 (or A7 A8))) (let ((.def_211 (not .def_210))) (let ((.def_212 (and A17 .def_58))) (let ((.def_213 (not .def_212))) (let ((.def_214 (and .def_213 .def_211))) (let ((.def_215 (or .def_214 .def_209))) (let ((.def_216 (not .def_215))) (let ((.def_217 (and .def_216 .def_205))) (let ((.def_218 (not .def_217))) (let ((.def_219 (or .def_218 .def_192))) (let ((.def_220 (or .def_219 .def_165))) (let ((.def_221 (or .def_220 .def_112))) .def_221)))))))))))))))))))))))))))))))))))))))))))))))))))))))))))))))))))))))))))))))))))))))))))))))))))))))))))))))))))))))))))))))))))))))))))))))))))))))))))))))))))))))))))))))))))))))))))))))))))))))))))))))))))))))))))))))
(check-sat)
